c CNF formula generated by generate_input.py
c Number of variables: 25
c Number of clauses: 25
c Clause length: random between 1 and 4
p cnf 25 25
22 0
-8 -23 0
-7 0
-9 17 15 5 0
23 16 18 0
14 -15 -8 0
-7 3 22 0
5 -13 -9 6 0
9 0
-17 -18 -11 -13 0
-8 18 0
20 -24 0
12 2 20 15 0
12 13 0
24 0
-13 0
-1 4 20 19 0
12 5 -16 -9 0
18 -15 0
8 -4 0
-6 15 14 25 0
-15 22 0
-20 -8 0
-22 -21 0
-18 22 0
